c uprop, v00.0, 
c reading from data/prog231.c.cnf
c done reading: 0.002265
p cnf 164 770
-69 -90 0
-69 -86 0
69 86 90 0
-63 86 90 0
-63 -86 -90 0
63 86 -90 0
63 -86 90 0
69 -81 0
-79 -81 0
-69 79 81 0
-69 -74 79 0
69 -74 -79 0
69 74 79 0
-69 74 -79 0
-70 81 0
-67 -70 0
67 70 -81 0
-65 67 -81 0
-65 -67 81 0
65 67 81 0
65 -67 -81 0
-64 70 0
-61 -64 0
61 64 -70 0
61 -70 -88 0
-61 70 -88 0
61 70 88 0
-61 -70 88 0
64 -92 0
-83 -92 0
-64 83 92 0
-64 83 -93 0
64 -83 -93 0
64 83 93 0
-64 -83 93 0
92 -94 0
-76 -94 0
76 -92 94 0
76 -92 -95 0
-76 92 -95 0
76 92 95 0
-76 -92 95 0
94 -96 0
-72 -96 0
72 -94 96 0
72 -94 -97 0
-72 94 -97 0
72 94 97 0
-72 -94 97 0
79 -98 0
90 -98 0
-79 -90 98 0
-79 -90 -99 0
79 90 -99 0
-79 90 99 0
79 -90 99 0
-67 -86 100 0
-67 -98 100 0
-86 -98 100 0
67 86 -100 0
67 98 -100 0
86 98 -100 0
67 -100 -101 0
86 -100 -101 0
98 -100 -101 0
-67 100 101 0
-86 100 101 0
-98 100 101 0
-67 -86 -98 101 0
67 86 98 -101 0
-61 -79 102 0
-61 -100 102 0
-79 -100 102 0
61 79 -102 0
61 100 -102 0
79 100 -102 0
61 -102 -103 0
79 -102 -103 0
100 -102 -103 0
-61 102 103 0
-79 102 103 0
-100 102 103 0
-61 -79 -100 103 0
61 79 100 -103 0
-67 -83 104 0
-83 -102 104 0
-67 -102 104 0
67 83 -104 0
83 102 -104 0
67 102 -104 0
-59 83 -104 0
-59 67 -104 0
-59 102 -104 0
59 -83 104 0
59 -67 104 0
59 -102 104 0
59 -67 -83 -102 0
-59 67 83 102 0
58 -61 -76 0
58 -76 -104 0
58 -61 -104 0
-58 61 76 0
-58 76 104 0
-58 61 104 0
-57 -58 76 0
-57 -58 61 0
-57 -58 104 0
57 58 -76 0
57 58 -61 0
57 58 -104 0
57 -61 -76 -104 0
-57 61 76 104 0
56 -72 -83 0
56 -58 -72 0
56 -58 -83 0
-56 72 83 0
-56 58 72 0
-56 58 83 0
-55 -56 72 0
-55 -56 83 0
-55 -56 58 0
55 56 -72 0
55 56 -83 0
55 56 -58 0
55 -58 -72 -83 0
-55 58 72 83 0
-54 76 0
-54 56 0
54 -56 -76 0
-56 -76 -89 0
56 76 -89 0
56 -76 89 0
-56 76 89 0
72 -85 0
54 -85 0
-54 -72 85 0
-54 -72 -78 0
54 72 -78 0
54 -72 78 0
-54 72 78 0
-66 103 0
-66 90 0
66 -90 -103 0
-60 -90 -103 0
-60 90 103 0
60 90 -103 0
60 -90 103 0
-59 82 -86 0
-59 -66 82 0
-66 82 -86 0
59 -82 86 0
59 66 -82 0
66 -82 86 0
59 -75 -82 0
-75 -82 86 0
66 -75 -82 0
-59 75 82 0
75 82 -86 0
-66 75 82 0
-59 -66 75 -86 0
59 66 -75 86 0
-57 71 -79 0
-57 71 -82 0
71 -79 -82 0
57 -71 79 0
57 -71 82 0
-71 79 82 0
-53 57 -71 0
-53 -71 79 0
-53 -71 82 0
53 -57 71 0
53 71 -79 0
53 71 -82 0
53 -57 -79 -82 0
-53 57 79 82 0
52 -55 -67 0
52 -55 -71 0
52 -67 -71 0
-52 55 67 0
-52 55 71 0
-52 67 71 0
-51 -52 55 0
-51 -52 67 0
-51 -52 71 0
51 52 -55 0
51 52 -67 0
51 52 -71 0
51 -55 -67 -71 0
-51 55 67 71 0
50 -61 -89 0
50 -52 -89 0
50 -52 -61 0
-50 61 89 0
-50 52 89 0
-50 52 61 0
-49 -50 89 0
-49 -50 61 0
-49 -50 52 0
49 50 -89 0
49 50 -61 0
49 50 -52 0
49 -52 -61 -89 0
-49 52 61 89 0
48 -78 -83 0
48 -50 -78 0
48 -50 -83 0
-48 78 83 0
-48 50 78 0
-48 50 83 0
-47 -48 78 0
-47 -48 83 0
-47 -48 50 0
47 48 -78 0
47 48 -83 0
47 48 -50 0
47 -50 -78 -83 0
-47 50 78 83 0
46 -76 -85 0
46 -48 -85 0
46 -48 -76 0
-46 76 85 0
-46 48 85 0
-46 48 76 0
-45 -46 85 0
-45 -46 76 0
-45 -46 48 0
45 46 -85 0
45 46 -76 0
45 46 -48 0
45 -48 -76 -85 0
-45 48 76 85 0
-44 72 0
-44 46 0
44 -46 -72 0
-43 -46 -72 0
-43 46 72 0
43 46 -72 0
43 -46 72 0
-42 -90 0
-42 -86 0
42 86 90 0
-41 86 90 0
-41 -86 -90 0
41 86 -90 0
41 -86 90 0
-40 42 0
-40 -99 0
40 -42 99 0
-39 -42 99 0
-39 42 -99 0
39 42 99 0
39 -42 -99 0
-38 40 0
-38 -101 0
38 -40 101 0
-40 101 -105 0
40 -101 -105 0
40 101 105 0
-40 -101 105 0
38 -106 0
-60 -106 0
-38 60 106 0
-38 60 -107 0
38 -60 -107 0
38 60 107 0
-38 -60 107 0
106 -108 0
-75 -108 0
75 -106 108 0
75 -106 -109 0
-75 106 -109 0
75 106 109 0
-75 -106 109 0
108 -110 0
-53 -110 0
53 -108 110 0
53 -108 -111 0
-53 108 -111 0
53 108 111 0
-53 -108 111 0
110 -112 0
-51 -112 0
51 -110 112 0
51 -110 -113 0
-51 110 -113 0
51 110 113 0
-51 -110 113 0
112 -114 0
-49 -114 0
49 -112 114 0
49 -112 -115 0
-49 112 -115 0
49 112 115 0
-49 -112 115 0
114 -116 0
-47 -116 0
47 -114 116 0
47 -114 -117 0
-47 114 -117 0
47 114 117 0
-47 -114 117 0
116 -118 0
-45 -118 0
45 -116 118 0
45 -116 -119 0
-45 116 -119 0
45 116 119 0
-45 -116 119 0
118 -120 0
-43 -120 0
43 -118 120 0
43 -118 -121 0
-43 118 -121 0
43 118 121 0
-43 -118 121 0
120 -122 0
-44 -122 0
44 -120 122 0
44 -120 -123 0
-44 120 -123 0
44 120 123 0
-44 -120 123 0
-124 -126 0
124 126 0
-127 -129 0
127 129 0
-130 -132 0
130 132 0
-133 -135 0
133 135 0
-136 -138 0
136 138 0
-139 -141 0
139 141 0
-142 -144 0
142 144 0
124 -145 0
-124 145 0
-124 -146 0
124 146 0
-124 -127 147 0
-127 -145 147 0
-124 -145 147 0
124 127 -147 0
127 145 -147 0
124 145 -147 0
127 -147 -148 0
124 -147 -148 0
145 -147 -148 0
-127 147 148 0
-124 147 148 0
-145 147 148 0
-124 -127 -145 148 0
124 127 145 -148 0
-127 -130 149 0
-130 -147 149 0
-127 -147 149 0
127 130 -149 0
130 147 -149 0
127 147 -149 0
130 -149 -150 0
127 -149 -150 0
147 -149 -150 0
-130 149 150 0
-127 149 150 0
-147 149 150 0
-127 -130 -147 150 0
127 130 147 -150 0
-130 -133 151 0
-133 -149 151 0
-130 -149 151 0
130 133 -151 0
133 149 -151 0
130 149 -151 0
133 -151 -152 0
130 -151 -152 0
149 -151 -152 0
-133 151 152 0
-130 151 152 0
-149 151 152 0
-130 -133 -149 152 0
130 133 149 -152 0
-133 -136 153 0
-136 -151 153 0
-133 -151 153 0
133 136 -153 0
136 151 -153 0
133 151 -153 0
136 -153 -154 0
133 -153 -154 0
151 -153 -154 0
-136 153 154 0
-133 153 154 0
-151 153 154 0
-133 -136 -151 154 0
133 136 151 -154 0
-136 -139 155 0
-139 -153 155 0
-136 -153 155 0
136 139 -155 0
139 153 -155 0
136 153 -155 0
-91 139 -155 0
-91 136 -155 0
-91 153 -155 0
91 -139 155 0
91 -136 155 0
91 -153 155 0
91 -136 -139 -153 0
-91 136 139 153 0
87 -139 -142 0
87 -142 -155 0
87 -139 -155 0
-87 139 142 0
-87 142 155 0
-87 139 155 0
-80 -87 142 0
-80 -87 139 0
-80 -87 155 0
80 87 -142 0
80 87 -139 0
80 87 -155 0
80 -139 -142 -155 0
-80 139 142 155 0
-68 142 0
-68 87 0
68 -87 -142 0
-62 -87 -142 0
-62 87 142 0
62 87 -142 0
62 -87 142 0
-84 148 0
84 -148 0
-77 -148 0
77 148 0
73 -124 -150 0
73 -84 -150 0
73 -84 -124 0
-73 124 150 0
-73 84 150 0
-73 84 124 0
-73 150 -156 0
-73 124 -156 0
-73 84 -156 0
73 -150 156 0
73 -124 156 0
73 -84 156 0
-84 -124 -150 156 0
84 124 150 -156 0
125 -127 -152 0
-73 125 -152 0
-73 125 -127 0
-125 127 152 0
73 -125 152 0
73 -125 127 0
-125 -128 152 0
-125 127 -128 0
73 -125 -128 0
125 128 -152 0
125 -127 128 0
-73 125 128 0
-73 -127 128 -152 0
73 127 -128 152 0
-130 131 -154 0
-125 131 -154 0
-125 -130 131 0
130 -131 154 0
125 -131 154 0
125 130 -131 0
-131 -134 154 0
130 -131 -134 0
125 -131 -134 0
131 134 -154 0
-130 131 134 0
-125 131 134 0
-125 -130 134 -154 0
125 130 -134 154 0
-91 -133 137 0
-91 -131 137 0
-131 -133 137 0
91 133 -137 0
91 131 -137 0
131 133 -137 0
91 -137 -140 0
133 -137 -140 0
131 -137 -140 0
-91 137 140 0
-133 137 140 0
-131 137 140 0
-91 -131 -133 140 0
91 131 133 -140 0
-80 -136 143 0
-80 -137 143 0
-136 -137 143 0
80 136 -143 0
80 137 -143 0
136 137 -143 0
80 -143 -157 0
136 -143 -157 0
137 -143 -157 0
-80 143 157 0
-136 143 157 0
-137 143 157 0
-80 -136 -137 157 0
80 136 137 -157 0
-62 -139 158 0
-62 -143 158 0
-139 -143 158 0
62 139 -158 0
62 143 -158 0
139 143 -158 0
62 -158 -159 0
139 -158 -159 0
143 -158 -159 0
-62 158 159 0
-139 158 159 0
-143 158 159 0
-62 -139 -143 159 0
62 139 143 -159 0
-68 -142 160 0
-68 -158 160 0
-142 -158 160 0
68 142 -160 0
68 158 -160 0
142 158 -160 0
68 -160 -161 0
142 -160 -161 0
158 -160 -161 0
-68 160 161 0
-142 160 161 0
-158 160 161 0
-68 -142 -158 161 0
68 142 158 -161 0
128 -162 0
-128 162 0
-128 -163 0
128 163 0
-124 -134 164 0
-134 -162 164 0
-124 -162 164 0
124 134 -164 0
134 162 -164 0
124 162 -164 0
-37 134 -164 0
-37 124 -164 0
-37 162 -164 0
37 -134 164 0
37 -124 164 0
37 -162 164 0
37 -124 -134 -162 0
-37 124 134 162 0
36 -127 -140 0
36 -140 -164 0
36 -127 -164 0
-36 127 140 0
-36 140 164 0
-36 127 164 0
-35 -36 140 0
-35 -36 127 0
-35 -36 164 0
35 36 -140 0
35 36 -127 0
35 36 -164 0
35 -127 -140 -164 0
-35 127 140 164 0
34 -130 -157 0
34 -36 -157 0
34 -36 -130 0
-34 130 157 0
-34 36 157 0
-34 36 130 0
-33 -34 157 0
-33 -34 130 0
-33 -34 36 0
33 34 -157 0
33 34 -130 0
33 34 -36 0
33 -36 -130 -157 0
-33 36 130 157 0
32 -133 -159 0
32 -34 -159 0
32 -34 -133 0
-32 133 159 0
-32 34 159 0
-32 34 133 0
-31 -32 159 0
-31 -32 133 0
-31 -32 34 0
31 32 -159 0
31 32 -133 0
31 32 -34 0
31 -34 -133 -159 0
-31 34 133 159 0
30 -136 -161 0
30 -32 -161 0
30 -32 -136 0
-30 136 161 0
-30 32 161 0
-30 32 136 0
-29 -30 161 0
-29 -30 136 0
-29 -30 32 0
29 30 -161 0
29 30 -136 0
29 30 -32 0
29 -32 -136 -161 0
-29 32 136 161 0
28 -139 -160 0
28 -30 -160 0
28 -30 -139 0
-28 139 160 0
-28 30 160 0
-28 30 139 0
-27 -28 160 0
-27 -28 139 0
-27 -28 30 0
27 28 -160 0
27 28 -139 0
27 28 -30 0
27 -30 -139 -160 0
-27 30 139 160 0
-26 142 0
-26 28 0
26 -28 -142 0
-25 -28 -142 0
-25 28 142 0
25 28 -142 0
25 -28 142 0
-24 -146 0
24 146 0
-23 -77 0
23 77 0
-22 -156 0
22 156 0
-21 -163 0
21 163 0
-20 -37 0
20 37 0
-19 -35 0
19 35 0
-18 -33 0
18 33 0
-17 -31 0
17 31 0
-16 -29 0
16 29 0
-15 -27 0
15 27 0
-14 -25 0
14 25 0
-13 -26 0
13 26 0
-12 90 0
-12 146 0
12 -90 -146 0
-90 -146 0
90 146 0
11 -77 -86 0
11 -12 -86 0
11 -12 -77 0
-11 77 86 0
-11 12 86 0
-11 12 77 0
11 -86 0
11 -77 0
11 -12 0
-12 -77 -86 0
10 -99 -156 0
10 -11 -99 0
10 -11 -156 0
-10 99 156 0
-10 11 99 0
-10 11 156 0
10 -99 0
10 -156 0
10 -11 0
-11 -99 -156 0
9 -101 -163 0
9 -10 -101 0
9 -10 -163 0
-9 101 163 0
-9 10 101 0
-9 10 163 0
9 -101 0
9 -163 0
9 -10 0
-10 -101 -163 0
8 -37 -60 0
8 -9 -60 0
8 -9 -37 0
-8 37 60 0
-8 9 60 0
-8 9 37 0
-8 60 0
-8 37 0
-8 9 0
9 37 60 0
7 -35 -75 0
7 -8 -75 0
7 -8 -35 0
-7 35 75 0
-7 8 75 0
-7 8 35 0
-7 75 0
-7 35 0
-7 8 0
8 35 75 0
6 -33 -53 0
6 -7 -53 0
6 -7 -33 0
-6 33 53 0
-6 7 53 0
-6 7 33 0
6 -53 0
6 -33 0
6 -7 0
-7 -33 -53 0
5 -31 -51 0
5 -6 -51 0
5 -6 -31 0
-5 31 51 0
-5 6 51 0
-5 6 31 0
5 -51 0
5 -31 0
5 -6 0
-6 -31 -51 0
4 -29 -49 0
4 -5 -49 0
4 -5 -29 0
-4 29 49 0
-4 5 49 0
-4 5 29 0
4 -49 0
4 -29 0
4 -5 0
-5 -29 -49 0
3 -27 -47 0
3 -4 -47 0
3 -4 -27 0
-3 27 47 0
-3 4 47 0
-3 4 27 0
3 -47 0
3 -27 0
3 -4 0
-4 -27 -47 0
2 -25 -45 0
2 -3 -45 0
2 -3 -25 0
-2 25 45 0
-2 3 45 0
-2 3 25 0
2 -45 0
2 -25 0
2 -3 0
-3 -25 -45 0
1 -26 -43 0
1 -2 -43 0
1 -2 -26 0
-1 26 43 0
-1 2 43 0
-1 2 26 0
1 -43 0
1 -26 0
1 -2 0
-2 -26 -43 0
-1 -44 0
1 -44 0
-1 44 0
